9182
9182
9182
9182
9182
9182
9182
9182
9182
9182
9182
9182
9182
9182
8867
8867
8867
8867
8867
8867
8867
8867
8867
8867
8867
8867
8867
8867
8867
8867
8867
8867
8867
8867
8867
8867
8867
8867
8867
8867
8867
8867
8867
8867
8863
8863
8863
8863
8863
8863
8863
8863
8863
8863
8863
8863
8863
8863
8863
8863
8863
8863
8863
8863
8863
8863
8863
8863
8863
8863
8863
8863
8863
8863
8863
8863
8863
8863
8863
8863
8863
8878
8878
8878
8878
8878
8878
8878
8878
8878
8878
8878
8878
8878
8878
8878
8878
8878
8878
8878
8878
8878
8878
8878
8878
8878
8878
8878
8878
8878
8878
8878
8878
8878
8878
8878
8878
8821
8821
8821
8821
8821
8821
8821
8821
8821
8821
8821
8821
8821
8821
8821
8821
8821
8821
8821
8821
8821
8821
8821
8821
8821
8821
8821
8821
8821
8821
8821
8821
8821
8821
8821
8821
8821
8821
8821
8821
8821
8821
8821
8821
8821
8821
8821
8821
8821
8821
8821
8821
8821
8821
8821
8821
8821
8821
8821
8821
8821
8821
8821
8821
8821
8821
8821
8821
8821
8821
8821
8821
8821
8821
8821
8821
8821
8821
8821
8821
8821
8821
8821
8821
8821
8821
8821
8821
8821
8821
8821
8821
8821
8821
8821
8821
8821
8821
8821
8821
8821
8665
8665
8665
8665
8665
8665
8665
8665
8665
8665
8665
8665
8665
8665
8665
8665
8665
8665
8665
8665
8665
8665
8665
8665
8665
8665
8665
8665
8665
8665
8665
8665
8665
8665
8665
8665
8665
8665
8665
8665
8665
8665
8665
8665
8665
8665
8665
8665
8665
8665
8665
8665
8665
8665
8665
8665
8665
8665
8665
8665
8665
8665
8665
8665
8665
8665
8665
8487
8487
8487
8487
8487
8487
8487
8487
8487
8487
8487
8487
8487
8487
8487
8487
8487
8487
8487
8487
8487
8487
8487
8487
8487
8487
8487
8487
8487
8487
8487
8487
8487
8487
8487
8487
8487
8487
8487
8487
8487
8487
8487
8487
8487
8487
8487
8487
8487
8487
8487
8487
8487
8487
8487
8487
8487
8487
8487
8487
8487
8487
8487
8487
8487
8487
8487
8487
8487
8487
8487
8487
8487
8487
8487
8487
8487
8487
8487
8487
8487
8487
8487
8487
8487
8487
8487
8487
8487
8487
8487
8487
8487
8487
8487
8487
8487
8487
8487
8487
8487
8487
8487
8487
8487
8487
8487
8487
8487
8487
8487
8487
8487
8487
8487
8487
8487
8487
8487
8487
8487
8487
8487
8487
8487
8487
8487
8487
8487
8487
8487
8487
8487
8487
8487
8487
8487
8487
8487
8487
8487
8487
8487
8487
8487
8487
8487
8487
8487
8487
8487
8487
8487
8487
8487
8487
8487
8487
8487
8487
8487
8487
8487
8487
8487
8487
8487
8487
8487
8487
8487
8487
8487
8487
8487
8487
8487
8487
8487
8487
8487
8487
8487
8487
8487
8487
8487
8487
8487
8487
8487
8487
8487
8487
8487
8487
8487
8487
8487
8487
8487
8487
8487
8487
8487
8487
8487
8487
8487
8487
8487
8487
8487
8487
8487
8487
8487
8487
8487
8487
8487
8487
8487
8487
8487
8487
8487
8487
8487
8487
8487
8487
8487
8487
8487
8487
8487
8487
8487
8487
8487
8487
8487
8487
8487
8487
8487
8487
8487
8487
8487
8487
8487
8487
8487
8487
8487
8487
8487
8487
8487
8487
8487
8487
8487
8487
8487
8487
8487
8487
8487
8487
8487
8487
8487
8487
8487
8487
8487
8487
8487
8487
8487
8487
8487
8487
8487
8487
8487
8487
8487
8487
8487
8487
8487
8487
8487
8487
8487
8487
8487
8487
8487
8487
8487
8487
8487
8487
8487
8487
8487
8487
8487
8487
8487
8487
8487
8487
8487
8487
8487
8487
8487
8487
8487
8487
8487
8487
8487
8487
8487
8487
8487
8487
8487
8487
8487
8487
8487
8487
8487
8487
8487
8487
8487
8487
8487
8487
8487
8487
8487
8487
8487
8487
8487
8487
8487
8487
8487
8487
8487
8487
8487
8487
8487
8487
8487
8487
8487
8487
8487
8487
8487
8487
8487
8487
8487
8487
8487
8487
8487
8487
8487
8487
8487
8487
8487
8487
8487
8487
8487
8487
8487
8487
8487
8487
8487
8487
8487
8487
8487
8487
8487
8487
8487
8487
8487
8487
8487
8487
8487
8487
8487
8487
8487
8487
8487
8487
8487
8487
8487
8487
8487
8487
8487
8487
8487
8487
8487
8487
8487
8487
8487
8487
8487
8487
8487
8487
8487
8487
8487
8487
8487
8487
8487
8487
8487
8487
8487
8487
8487
8487
8487
8487
8487
8487
8487
8487
8487
8487
8487
8487
8487
8487
8487
8487
8487
8487
8487
8487
8487
8487
8487
8487
8487
8487
8487
8487
8487
8487
8487
8487
8487
8487
8487
8487
8487
8487
8487
8487
8487
8487
8487
8487
8487
8487
8487
8487
8487
8487
10017
8728
8728
8728
8728
8728
8728
8728
8728
8728
8728
8728
8728
8728
8728
8728
8728
8728
8728
8728
8728
8728
8728
8728
8728
8728
8728
8728
8728
8728
8728
8728
8728
8728
8728
8728
8728
8728
8728
8728
8728
8728
8728
8728
8728
8728
8728
8728
8728
8728
8728
8728
8728
8728
8728
8728
8728
8728
8728
8728
8728
8728
8728
8728
8728
8728
8728
8728
8728
8728
8728
8728
8728
8728
8728
8728
8728
8728
8728
8728
8728
8728
8728
8728
8728
8728
8728
8728
8728
8728
8728
8728
8728
8728
8728
8728
8728
8728
8728
8728
8728
8728
8728
8728
8728
8728
8728
8728
8728
8728
8728
8728
8728
8728
8728
8728
8728
8728
8728
8728
8728
8728
8728
8728
8728
8728
8728
8728
8728
8728
8728
8728
8728
8728
8728
8728
8728
8728
8728
8728
8728
8728
8728
8728
8728
8728
8728
8728
8728
8728
8728
8673
8673
8673
8673
8673
8673
8673
8673
8673
8673
8673
8673
8673
8673
8673
8673
8673
8673
8673
8673
8673
8673
8673
8673
8673
8673
8673
8673
8673
8673
8673
8664
8664
8664
8664
8664
8664
8664
8664
8664
8664
8664
8664
8664
8664
8664
8664
8664
8664
8664
8664
8664
8664
8664
8664
8664
8664
8664
8664
8664
8664
8664
8664
8664
8664
8664
8664
8664
8664
8664
8664
8664
8664
8664
8664
8664
8664
8664
8664
8664
8664
8664
8664
8664
8664
8664
8664
8664
8664
8664
8664
8664
8664
8664
8664
8664
8664
8664
8664
8664
8664
8664
8664
8664
8664
8664
8664
8664
8664
8664
8664
8664
8664
8664
8664
8664
8664
8664
8664
8664
8664
8664
8664
8664
8664
8664
8664
8664
8664
8664
8664
8664
8664
8664
8664
8664
8664
8664
8664
8664
8664
8664
8664
8664
8664
8664
8664
8664
8664
8664
8664
8664
8664
8664
8664
8664
8664
8664
8664
8664
8664
8664
8664
8664
8664
8664
8664
8664
8664
8664
8664
8664
8664
8570
8570
8570
8570
8570
8570
8570
8570
8570
8570
8570
8570
8570
8570
8570
8570
8570
8570
8570
8570
8570
8570
8570
8570
8570
8570
8570
8570
8570
8570
8570
8570
8570
8570
8570
8570
8570
8570
8570
8570
8570
8570
8570
8570
8570
8570
8570
8570
8570
8570
8570
8570
8570
8570
8570
8570
8570
8570
8570
8570
8570
8570
8570
8570
8570
8570
8570
8570
8570
8570
8570
8570
8570
8570
8570
8570
8570
8570
8570
8570
8570
8570
8570
8570
8570
8570
8570
8570
8570
8570
8570
8570
8570
8570
8570
8570
8570
8570
8570
8570
8570
8570
8570
8570
8570
8570
8570
8570
8570
8570
8570
8570
8570
8570
8570
8570
8570
8570
8570
8570
8570
8570
8570
8570
8570
8570
8570
8570
8570
8570
8570
8570
8570
8570
8570
8570
8570
8570
8570
8570
8570
8570
8570
8570
8570
8570
8570
8570
8570
8570
8570
8570
8570
8570
8570
8570
8570
8570
8570
8570
8570
8570
8570
8570
8570
8570
8570
8570
8570
8570
8570
8570
8570
8570
8570
8570
8570
8570
8570
8570
8570
8570
8570
8570
8570
8570
8570
8570
8570
8570
8570
8570
8570
8570
8570
8570
8570
8570
8570
8570
8570
8570
8570
8570
8570
8570
8570
8570
8570
8570
8570
8570
8570
8570
8570
8570
8570
8570
8570
8570
8570
8570
8570
8570
8570
8570
8570
8570
8570
8570
8570
8570
8570
8570
8570
8570
8570
8570
8570
8570
8570
8570
8570
8570
8570
8570
8570
8570
8570
8570
8570
8570
8570
8570
8570
8570
8570
8570
8570
8570
8570
8570
8570
8570
8570
8570
8570
8570
8570
8570
8570
8570
8570
8570
8570
8570
8570
8570
8570
8570
8570
8570
8570
8570
8570
8570
8570
8570
8570
8570
8570
8570
8570
8570
8570
8570
8570
8570
8570
8570
8570
8570
8570
8570
8570
8570
8570
8570
8570
8570
8570
8570
8570
8570
8570
8570
8570
8570
8570
8570
8570
8570
8570
8570
8570
8570
8570
8570
8570
8570
8570
8570
8570
8570
8570
8570
8570
8570
8570
8570
8570
8570
8570
8570
8570
8570
8570
8570
8570
8570
8570
8570
8570
8570
8570
8570
8570
8570
8570
8570
8570
8570
8570
8570
8570
8570
8570
8570
8570
8570
8570
8570
8570
8570
8570
8570
8570
8570
8570
8570
8570
8570
8570
8570
8570
8570
8570
8570
8570
8570
8570
8570
8570
8570
8570
8570
8570
8570
8570
8570
8570
8570
8570
8570
8570
8570
8570
8570
8570
8570
8570
8570
8570
8570
8570
8570
8570
8570
8570
8570
8570
8570
8570
8570
8570
8570
8570
8570
8570
8570
8570
8570
8570
8570
8570
8570
8570
8570
8570
8570
8570
8570
8570
8570
8570
8570
8570
8570
8570
8570
8570
8570
8570
8570
8570
8570
8570
8570
8570
8570
8570
8570
8570
8570
8570
8570
8570
8570
8570
8570
8570
8570
8570
8570
8570
8570
8570
8570
8570
8570
8570
8570
8570
8570
8570
8570
8570
8570
8570
8570
8570
8570
8570
8570
8570
8570
8570
8570
8570
8570
8570
8570
8570
8570
8570
8570
8570
8570
8570
8570
8570
8570
8570
8570
8570
8570
8570
8570
8570
8570
8570
8570
8570
8570
8570
8570
8570
8570
8570
8570
8570
8570
8570
8570
8570
8570
8570
8570
8570
8570
8570
8570
8570
8570
8570
8570
8570
8570
8570
8570
8570
8570
8570
8570
8570
8570
8570
8570
8570
8570
8570
8570
8570
8570
8570
8570
8570
8570
8570
8570
8570
8570
8570
8570
8570
8570
8570
8570
8570
8570
8570
8570
8570
8570
8570
8570
8570
8570
8570
8570
8570
8570
8570
8570
8570
8570
8570
8570
8570
8570
8570
8570
8570
8570
8570
8570
8570
8570
8570
8570
8570
8570
8570
8570
8570
8570
8570
8570
8570
8570
8570
8570
8570
8570
8570
8570
8570
8570
8570
8570
8570
8570
8570
8570
8570
8570
8570
8570
8570
8570
8570
8570
8570
8570
8570
8570
8570
8570
8570
8570
8570
8570
8570
8570
8570
8570
8570
8570
8570
8570
8570
8570
8570
8570
8570
8570
8570
8570
8570
8570
8570
8570
8570
8570
8570
8570
8570
8570
8570
8570
8570
8570
8570
8570
8570
8570
8570
8570
8570
8570
8570
8570
8570
8570
8570
8570
8570
8570
8570
8570
8570
8570
8570
8570
8570
8570
8570
8570
8570
8570
8570
8570
8570
8570
8570
8570
8570
8570
8570
8570
8570
8570
8570
8570
8570
8570
8570
8570
8570
8570
8570
8570
8570
8570
8570
8570
8570
8570
8570
8570
8570
8570
8570
8570
8570
8570
8570
8570
8570
8570
8570
8570
8570
8570
8570
8570
8570
8570
8570
8570
8570
8570
8570
8570
8570
8570
8570
8570
8570
8570
8570
8570
8570
8570
8570
8570
8570
8570
8570
8570
8570
8570
8570
8570
8570
8570
8570
8570
8570
8570
8570
8570
8570
8570
8570
8570
8570
8570
8570
8570
8570
8570
8570
8570
8570
8570
8570
8570
8570
8570
8570
8570
8570
8570
8570
8570
8570
8570
8570
8570
8570
8570
8570
8570
8570
8570
8570
8570
8570
8570
8570
8570
8570
8570
8570
8570
8570
8570
8570
8570
8570
8570
8570
8570
8570
8570
8570
8570
8570
8570
8570
8570
8570
8570
8570
8570
8570
8570
8570
8570
8570
8570
8570
8570
8570
8570
8570
8570
8570
8570
8570
8570
8570
8570
8570
8570
8570
8570
8570
8570
8570
8570
8570
8570
8570
8570
8570
8570
8570
8570
